p tw 79 84
1 2
2 13
3 4
4 5
5 6
6 7
7 8
8 9
9 10
10 11
11 12
12 14
12 71
13 24
14 15
15 16
16 17
17 18
18 19
19 20
20 21
21 22
22 23
23 25
24 35
25 26
26 27
27 28
28 29
28 71
29 30
30 31
31 32
32 33
33 34
34 36
35 46
36 37
36 40
37 38
38 39
39 62
40 41
41 42
42 43
43 44
44 45
45 47
45 50
46 57
47 48
48 49
49 62
50 51
51 52
52 53
53 54
54 55
55 56
55 60
56 58
57 68
58 59
59 62
60 61
61 76
62 63
63 64
64 65
65 66
66 67
67 69
68 78
69 70
70 76
71 72
72 73
73 68
74 75
75 76
76 77
78 79
79 3
79 74
